c ---- [ banner ] ------------------------------------------------------------
c
c Kissat SAT Solver
c 
c Copyright (c) 2021-2024 Armin Biere University of Freiburg
c Copyright (c) 2019-2021 Armin Biere Johannes Kepler University Linz
c 
c Version 4.0.1 43f02cf3e992cb44653b35e5cb26f93281552ae0
c gcc (Ubuntu 13.2.0-23ubuntu4) 13.2.0 -W -Wall -O3 -DNDEBUG
c Thu Sep 12 12:27:46 CEST 2024 Linux abryzen9 6.8.0-41-generic x86_64
c
c ---- [ parsing ] -----------------------------------------------------------
c
c opened and reading DIMACS file:
c
c   /data/artifact/AMulet2.0_artifact/exp4/cnf_mfs_64/64_64_U1_WT_BK_Multgen_mfs.cnf
c
c parsed 'p cnf 36480 141891' header
c closing input after reading 2763533 bytes (3 MB)
c finished parsing after 0.02 seconds
c
c ---- [ options ] -----------------------------------------------------------
c
c --stable=0                       (different from default '1')
c
c ---- [ solving ] -----------------------------------------------------------
c
c  seconds switched rate     size/glue tier1  binary           remaining
c         MB reductions conflicts size  tier2     irredundant
c          level restarts redundant glue  trail           variables
c
c *  0.02 11 0 0 0  0 0   0   0 0.0 0 0 0 0 0% 29413 112476 36477 100%
c (  0.04 13 0 0 0  0 0   0   0 0.0 0 0 0 0 0% 29413 112476 36477 100%
c .  0.04 13 0 0 0  0 0   0   0 0.0 0 0 0 0 0% 29409 112476 36477 100%
c c  0.11 21 0 0 0  0 0   0   0 0.0 0 0 0 0 0% 36634 98244 32864 90%
c d  0.11 22 0 0 0  0 0   0   0 0.0 0 0 0 0 0% 29408 98244 32864 90%
c =  0.16 22 0 0 0  0 0   0   0 0.0 0 0 0 0 0% 29792 98244 32600 89%
c d  0.16 22 0 0 0  0 0   0   0 0.0 0 0 0 0 0% 29264 98244 32600 89%
c f  0.24 20 0 0 0  0 0   0   0 0.0 0 0 0 0 0% 32177 93558 34369 94%
c e  0.34 28 0 0 0  0 0   0   0 0.0 0 0 0 0 0% 10342 107684 23218 64%
c )  0.34 28 0 0 0  0 0   0   0 0.0 0 0 0 0 0% 10342 107684 23218 64%
c {  0.36 28 0 0 0  0 0   0   0 0.0 0 0 2 6 0% 10342 107684 23218 64%
c -  0.55 28 167 0 1 304 39 1001 754 4.4 22 5 3 8 18% 10412 107684 23218 64%
c -  0.67 28 264 0 2 408 35 2003 1496 3.5 17 5 2 9 22% 10458 107664 23218 64%
c c  0.75 22 399 0 2 426 33 2504 1924 3.7 17 5 2 8 22% 10488 107652 23216 64%
c d  0.76 22 399 0 2 426 33 2504 1924 3.7 17 5 2 8 22% 10484 107652 23216 64%
c u  0.77 22 399 0 2 426 33 2504 1466 3.7 17 5 2 8 22% 10487 107652 23216 64%
c v  0.78 22 399 0 2 426 33 2504 1189 3.7 17 5 2 8 22% 10487 107652 23216 64%
c w  0.80 22 399 0 2 426 33 2504 1189 3.7 17 5 2 8 22% 10487 107652 23216 64%
c x  0.81 25 399 0 2 426 33 2504 1187 3.7 17 5 2 8 22% 10589 107461 23216 64%
c =  0.86 25 399 0 2 426 33 2504 1187 3.7 17 5 2 8 22% 10849 107461 23086 63%
c
c  seconds   switched   rate       size/glue tier1    binary           remaining
c         MB  reductions conflicts       size  tier2      irredundant
c           level restarts    redundant    glue   trail           variables
c
c d  0.87 25 399 0 2 426 33 2504 1182 3.7 17 5 2 8 22% 10589 107461 23086 63%
c f  0.89 25 399 0 2 426 33 2504 1182 3.7 17 5 2 8 22% 11291 106096 23748 65%
c u  0.91 25 399 0 2 426 33 2504 1138 3.7 17 5 2 8 22% 11293 106096 23748 65%
c v  0.92 25 399 0 2 426 33 2504 1096 3.7 17 5 2 8 22% 11293 106096 23748 65%
c w  0.93 25 399 0 2 426 33 2504 1088 3.7 17 5 2 8 22% 11293 106096 23748 65%
c x  0.95 25 399 0 2 426 33 2504 1088 3.7 17 5 2 8 22% 11294 105758 23748 65%
c =  1.00 25 399 0 2 426 33 2504 1088 3.7 17 5 2 8 22% 11536 105758 23627 65%
c d  1.00 25 399 0 2 426 33 2504 1088 3.7 17 5 2 8 22% 11252 105758 23627 65%
c f  1.03 25 399 0 2 426 33 2504 1088 3.7 17 5 2 8 22% 11743 105021 23873 65%
c -  1.17 25 362 0 3 562 34 3417 1608 3.6 17 5 2 8 21% 11804 105011 23873 65%
c -  1.35 25 412 0 4 715 32 5149 2680 3.7 17 5 2 8 19% 11905 105010 23873 65%
c -  1.69 25 422 0 5 996 39 7149 3860 3.8 18 5 2 7 20% 12016 105001 23873 65%
c c  1.86 27 431 0 5 1061 39 7709 4349 3.9 22 6 2 7 21% 12045 104913 23842 65%
c d  1.86 27 431 0 5 1061 39 7709 4337 3.9 22 6 2 7 21% 11981 104913 23841 65%
c u  1.88 27 431 0 5 1061 39 7709 3332 3.9 22 6 2 7 21% 12004 104913 23841 65%
c v  1.90 27 431 0 5 1061 39 7709 2943 3.9 22 6 2 7 21% 12004 104913 23841 65%
c w  1.95 27 431 0 5 1061 39 7709 2943 3.9 22 6 2 7 21% 12004 104913 23841 65%
c x  1.96 27 431 0 5 1061 39 7709 2942 3.9 22 6 2 7 21% 12017 104382 23841 65%
c =  2.06 27 431 0 5 1061 39 7709 2942 3.9 22 6 2 7 21% 12887 104382 23406 64%
c d  2.07 27 431 0 5 1061 39 7709 2924 3.9 22 6 2 7 21% 11901 104382 23404 64%
c
c  seconds   switched    rate       size/glue tier1    binary           remaining
c         MB  reductions  conflicts       size  tier2      irredundant
c           level  restarts    redundant    glue   trail           variables
c
c t  2.08 27 431 0 5 1061 39 7709 2924 3.9 22 6 2 7 21% 11887 104382 23404 64%
c f  2.11 27 431 0 5 1061 39 7709 2924 3.9 22 6 2 7 21% 13361 102165 24143 66%
c u  2.17 27 431 0 5 1061 39 7709 2705 3.9 22 6 2 7 21% 13365 102165 24143 66%
c v  2.19 27 431 0 5 1061 39 7709 2640 3.9 22 6 2 7 21% 13365 102165 24143 66%
c w  2.23 27 431 0 5 1061 39 7709 2631 3.9 22 6 2 7 21% 13365 102165 24143 66%
c x  2.25 27 431 0 5 1061 39 7709 2630 3.9 22 6 2 7 21% 13369 98543 24143 66%
c =  2.34 27 431 0 5 1061 39 7709 2630 3.9 22 6 2 7 21% 14079 98543 23788 65%
c d  2.35 27 431 0 5 1061 39 7709 2622 3.9 22 6 2 7 21% 13290 98543 23788 65%
c t  2.36 27 431 0 5 1061 39 7709 2622 3.9 22 6 2 7 21% 13266 98543 23788 65%
c f  2.40 27 431 0 5 1061 39 7709 2622 3.9 22 6 2 7 21% 13800 97735 24057 66%
c -  2.58 27 404 0 6 1175 37 9385 3632 3.7 20 6 2 7 22% 13848 97734 24057 66%
c o  2.71 27 395 0 6 1260 38 10002 4181 3.7 22 6 2 7 22% 13864 97734 24057 66%
c -  3.14 27 374 0 7 1478 39 11834 5071 4.0 27 7 2 7 24% 13950 97730 24057 66%
c s  3.30 27 371 0 7 1562 40 12511 5679 4.0 27 7 2 7 24% 13969 96303 24057 66%
c e  3.40 27 371 0 7 1562 40 12511 5679 4.0 27 7 2 7 24% 11679 97833 22364 61%
c s  3.41 27 371 0 7 1562 40 12511 5679 4.0 27 7 2 7 24% 11687 96659 22364 61%
c e  3.42 27 371 0 7 1562 40 12511 5679 4.0 27 7 2 7 24% 11675 96671 22360 61%
c ^  3.42 27 371 0 7 1562 40 12511 5679 4.0 27 7 2 7 24% 11675 96671 22360 61%
c -  3.67 27 359 0 8 1666 38 14480 6001 4.0 26 7 2 7 24% 11748 96665 22360 61%
c d  3.91 27 357 0 8 1786 37 15789 7191 4.1 27 7 2 7 24% 11554 96664 22225 61%
c
c  seconds   switched    rate        size/glue tier1    binary          remaining
c         MB  reductions   conflicts       size  tier2      irredundant
c           level  restarts     redundant    glue   trail          variables
c
c u  3.93 27 357 0 8 1786 37 15789 5756 4.1 27 7 2 7 24% 11565 96664 22225 61%
c v  3.96 27 357 0 8 1786 37 15789 4999 4.1 27 7 2 7 24% 11565 96664 22225 61%
c w  4.02 27 357 0 8 1786 37 15789 4993 4.1 27 7 2 7 24% 11565 96664 22225 61%
c x  4.05 27 357 0 8 1786 37 15789 4993 4.1 27 7 2 7 24% 11616 94662 22225 61%
c =  4.21 27 357 0 8 1786 37 15789 4993 4.1 27 7 2 7 24% 13486 94662 21290 58%
c d  4.21 27 357 0 8 1786 37 15789 4935 4.1 27 7 2 7 24% 11182 94662 21290 58%
c t  4.22 27 357 0 8 1786 37 15789 4935 4.1 27 7 2 7 24% 11157 94662 21290 58%
c f  4.27 27 357 0 8 1786 37 15789 4935 4.1 27 7 2 7 24% 11174 94620 21302 58%
c u  4.34 27 357 0 8 1786 37 15789 4545 4.1 27 7 2 7 24% 11179 94620 21302 58%
c v  4.36 27 357 0 8 1786 37 15789 4432 4.1 27 7 2 7 24% 11179 94620 21302 58%
c w  4.43 27 357 0 8 1786 37 15789 4400 4.1 27 7 2 7 24% 11179 94620 21302 58%
c x  4.46 27 357 0 8 1786 37 15789 4400 4.1 27 7 2 7 24% 11185 92806 21302 58%
c =  4.65 27 357 0 8 1786 37 15789 4400 4.1 27 7 2 7 24% 12875 92802 20457 56%
c d  4.66 27 357 0 8 1786 37 15789 4363 4.1 27 7 2 7 24% 10854 92802 20457 56%
c t  4.67 27 357 0 8 1786 37 15789 4363 4.1 27 7 2 7 24% 10848 92802 20457 56%
c f  4.69 27 357 0 8 1786 37 15789 4363 4.1 27 7 2 7 24% 10855 92772 20467 56%
c -  4.88 27 366 0 9 1875 37 17308 4990 4.0 26 7 2 7 24% 10885 92772 20467 56%
c o  5.19 27 351 0 9 2037 35 20154 7465 4.0 26 6 2 7 24% 10975 92770 20467 56%
c -  5.25 27 350 0 10 2078 36 20309 6762 4.0 27 7 2 7 24% 10976 92770 20467 56%
c -  5.70 27 351 0 11 2322 35 23471 8445 4.1 27 7 2 7 24% 11057 92770 20467 56%
c
c  seconds   switched     rate        size/glue tier1    binary          remaining
c         MB   reductions   conflicts       size  tier2      irredundant
c           level   restarts     redundant    glue   trail          variables
c
c s  5.94 27 343 0 11 2453 35 25013 9784 4.0 27 7 2 7 24% 11105 91791 20467 56%
c e  6.04 27 343 0 11 2453 35 25013 9784 4.0 27 7 2 7 24% 9566 95564 17662 48%
c s  6.06 27 343 0 11 2453 35 25013 9784 4.0 27 7 2 7 24% 9613 91570 17662 48%
c e  6.09 27 343 0 11 2453 35 25013 9784 4.0 27 7 2 7 24% 9586 91614 17640 48%
c ^  6.09 27 343 0 11 2453 35 25013 9784 4.0 27 7 2 7 24% 9586 91614 17640 48%
c -  6.31 27 334 0 12 2518 33 26787 8210 3.9 26 7 2 7 25% 9614 91613 17640 48%
c d  6.34 27 333 0 12 2545 33 26915 8331 3.9 26 7 2 7 25% 9558 91613 17605 48%
c u  6.37 27 333 0 12 2545 33 26915 6899 3.9 26 7 2 7 25% 9563 91613 17605 48%
c v  6.40 27 333 0 12 2545 33 26915 5966 3.9 26 7 2 7 25% 9563 91613 17605 48%
c w  6.41 27 333 0 12 2545 33 26915 5962 3.9 26 7 2 7 25% 9563 91613 17605 48%
c x  6.47 27 333 0 12 2545 33 26915 5957 3.9 26 7 2 7 25% 9599 88805 17605 48%
c =  6.63 27 333 0 12 2545 33 26915 5957 3.9 26 7 2 7 25% 11041 88803 16884 46%
c d  6.64 27 333 0 12 2545 33 26915 5847 3.9 26 7 2 7 25% 9562 88803 16884 46%
c t  6.65 27 333 0 12 2545 33 26915 5847 3.9 26 7 2 7 25% 9528 88803 16884 46%
c f  6.71 27 333 0 12 2545 33 26915 5847 3.9 26 7 2 7 25% 9547 88656 16914 46%
c u  6.73 27 333 0 12 2545 33 26915 5499 3.9 26 7 2 7 25% 9551 88656 16914 46%
c v  6.75 27 333 0 12 2545 33 26915 5351 3.9 26 7 2 7 25% 9552 88656 16914 46%
c w  6.76 27 333 0 12 2545 33 26915 5348 3.9 26 7 2 7 25% 9552 88656 16914 46%
c x  6.83 27 333 0 12 2545 33 26915 5348 3.9 26 7 2 7 25% 9556 84131 16914 46%
c =  7.00 27 333 0 12 2545 33 26915 5348 3.9 26 7 2 7 25% 11862 84129 15761 43%
c
c  seconds   switched     rate        size/glue tier1    binary         remaining
c         MB   reductions   conflicts       size  tier2     irredundant
c           level   restarts     redundant    glue   trail         variables
c
c d  7.00 27 333 0 12 2545 33 26915 5214 3.9 26 7 2 7 25% 9514 84129 15761 43%
c t  7.01 27 333 0 12 2545 33 26915 5214 3.9 26 7 2 7 25% 9484 84129 15761 43%
c f  7.04 27 333 0 12 2545 33 26915 5214 3.9 26 7 2 7 25% 9489 84102 15768 43%
c -  7.38 27 306 0 13 2721 31 30252 7401 3.7 24 6 2 7 25% 9513 84102 15768 43%
c -  7.74 27 285 0 14 2958 29 33858 9541 3.5 23 6 2 7 25% 9540 84101 15768 43%
c -  8.09 27 279 0 15 3196 28 37603 11219 3.4 22 6 2 7 25% 9607 84083 15768 43%
c o  8.32 27 280 0 15 3363 27 40190 13502 3.4 21 6 2 7 24% 9634 84083 15768 43%
c c  8.57 27 275 0 15 3511 27 41243 14470 3.4 22 6 2 7 24% 9667 83942 15739 43%
c d  8.57 27 275 0 15 3511 27 41243 14421 3.4 22 6 2 7 24% 9606 83942 15737 43%
c u  8.61 27 275 0 15 3511 27 41243 12064 3.4 22 6 2 7 24% 9619 83942 15737 43%
c v  8.65 27 275 0 15 3511 27 41243 11270 3.4 22 6 2 7 24% 9619 83942 15737 43%
c w  8.68 27 275 0 15 3511 27 41243 11270 3.4 22 6 2 7 24% 9619 83942 15737 43%
c x  8.72 27 275 0 15 3511 27 41243 11270 3.4 22 6 2 7 24% 9628 77431 15737 43%
c d  8.90 27 275 0 15 3511 27 41243 11270 3.4 22 6 2 7 24% 9626 77431 15736 43%
c t  8.91 27 275 0 15 3511 27 41243 11270 3.4 22 6 2 7 24% 9613 77431 15736 43%
c u  8.96 27 275 0 15 3511 27 41243 10887 3.4 22 6 2 7 24% 9616 77431 15736 43%
c v  9.00 27 275 0 15 3511 27 41243 10083 3.4 22 6 2 7 24% 9619 77431 15736 43%
c w  9.04 27 275 0 15 3511 27 41243 10081 3.4 22 6 2 7 24% 9619 77431 15736 43%
c x  9.08 27 275 0 15 3511 27 41243 10080 3.4 22 6 2 7 24% 9627 76744 15736 43%
c d  9.08 27 275 0 15 3511 27 41243 10078 3.4 22 6 2 7 24% 9625 76744 15735 43%
c
c  seconds   switched     rate         size/glue tier1    binary         remaining
c         MB   reductions   conflicts        size  tier2     irredundant
c           level   restarts      redundant    glue   trail         variables
c
c t  9.09 27 275 0 15 3511 27 41243 10078 3.4 22 6 2 7 24% 9620 76744 15735 43%
c -  9.15 27 274 0 16 3527 27 41476 9048 3.4 22 6 2 6 25% 9620 76744 15735 43%
c -  9.58 27 262 0 17 3798 26 45478 11146 3.3 21 7 2 6 24% 9676 76744 15735 43%
c - 10.05 27 259 0 18 4145 26 49601 13272 3.2 21 7 2 6 24% 9723 76741 15735 43%
c s 10.25 27 259 0 18 4275 25 52113 15449 3.2 21 6 2 6 24% 9768 74240 15735 43%
c e 10.33 27 259 0 18 4275 25 52113 15449 3.2 21 6 2 6 24% 7904 77588 14349 39%
c 2 10.33 27 259 0 18 4275 25 52113 15449 3.2 21 6 2 6 24% 7902 77588 14349 39%
c s 10.34 27 259 0 18 4275 25 52113 15449 3.2 21 6 2 6 24% 7915 76732 14349 39%
c e 10.36 27 259 0 18 4275 25 52113 15449 3.2 21 6 2 6 24% 7905 76757 14338 39%
c ^ 10.36 27 259 0 18 4275 25 52113 15449 3.2 21 6 2 6 24% 7905 76757 14338 39%
c - 10.52 27 253 0 19 4356 25 53844 13073 3.1 20 6 2 6 24% 7922 76755 14338 39%
c - 11.11 27 241 0 20 4793 24 58202 15190 3.1 20 7 2 6 25% 7947 76754 14338 39%
c c 11.20 27 239 0 20 4832 24 58881 15813 3.1 20 7 2 6 25% 8008 76444 14293 39%
c d 11.20 27 239 0 20 4832 24 58881 15717 3.1 20 7 2 6 25% 7918 76444 14293 39%
c u 11.25 27 239 0 20 4832 24 58881 13103 3.1 20 7 2 6 25% 7946 76444 14293 39%
c v 11.29 27 239 0 20 4832 24 58881 11587 3.1 20 7 2 6 25% 7952 76444 14293 39%
c w 11.31 27 239 0 20 4832 24 58881 11557 3.1 20 7 2 6 25% 7952 76444 14293 39%
c x 11.36 27 239 0 20 4832 24 58881 11555 3.1 20 7 2 6 25% 7953 76280 14293 39%
c = 11.58 27 239 0 20 4832 24 58881 11555 3.1 20 7 2 6 25% 8461 76280 14039 38%
c d 11.59 27 239 0 20 4832 24 58881 11320 3.1 20 7 2 6 25% 7888 76280 14037 38%
c
c  seconds   switched     rate         size/glue tier1    binary         remaining
c         MB   reductions   conflicts        size  tier2     irredundant
c           level   restarts      redundant    glue   trail         variables
c
c t 11.60 27 239 0 20 4832 24 58881 11320 3.1 20 7 2 6 25% 7865 76280 14037 38%
c f 11.64 27 239 0 20 4832 24 58881 11320 3.1 20 7 2 6 25% 7895 76153 14054 39%
c u 11.72 27 239 0 20 4832 24 58881 10692 3.1 20 7 2 6 25% 7899 76153 14054 39%
c v 11.74 27 239 0 20 4832 24 58881 10428 3.1 20 7 2 6 25% 7899 76153 14054 39%
c w 11.76 27 239 0 20 4832 24 58881 10406 3.1 20 7 2 6 25% 7899 76153 14054 39%
c x 11.85 27 239 0 20 4832 24 58881 10398 3.1 20 7 2 6 25% 7909 74019 14054 39%
c d 12.07 27 239 0 20 4832 24 58881 10397 3.1 20 7 2 6 25% 7907 74019 14053 39%
c t 12.08 27 239 0 20 4832 24 58881 10397 3.1 20 7 2 6 25% 7901 74019 14053 39%
c - 12.46 27 233 0 21 5089 24 62675 12481 3.0 19 6 2 6 25% 7933 74015 14053 39%
c - 12.81 27 227 0 22 5332 23 67257 14880 2.9 19 6 2 6 24% 7961 74014 14053 39%
c o 13.14 27 222 0 22 5593 23 70209 17551 2.9 19 6 2 6 24% 7976 74012 14053 39%
c - 13.31 27 220 0 23 5720 23 71947 16890 2.9 19 7 2 6 24% 8001 74012 14053 39%
c - 13.81 27 212 0 24 6094 22 76742 18672 2.9 19 7 2 6 24% 8050 74011 14053 39%
c d 14.27 27 210 0 24 6438 22 79962 21321 2.9 19 7 2 6 24% 8017 74009 14010 38%
c u 14.33 27 210 0 24 6438 22 79962 17976 2.9 19 7 2 6 24% 8045 74009 14010 38%
c v 14.38 27 210 0 24 6438 22 79962 16930 2.9 19 7 2 6 24% 8045 74009 14010 38%
c w 14.41 27 210 0 24 6438 22 79962 16930 2.9 19 7 2 6 24% 8045 74009 14010 38%
c x 14.47 27 210 0 24 6438 22 79962 16924 2.9 19 7 2 6 24% 8059 73471 14010 38%
c d 14.48 27 210 0 24 6438 22 79962 16886 2.9 19 7 2 6 24% 8035 73471 13998 38%
c t 14.49 27 210 0 24 6438 22 79962 16886 2.9 19 7 2 6 24% 8025 73471 13998 38%
c
c  seconds   switched     rate         size/glue tier1    binary         remaining
c         MB   reductions   conflicts        size  tier2     irredundant
c           level   restarts      redundant    glue   trail         variables
c
c f 14.50 27 210 0 24 6438 22 79962 16886 2.9 19 7 2 6 24% 8029 73455 14000 38%
c c 14.54 27 210 0 24 6438 22 79962 16757 2.9 19 7 2 6 24% 8091 73170 13965 38%
c d 14.54 27 210 0 24 6438 22 79962 16757 2.9 19 7 2 6 24% 8021 73170 13965 38%
c u 14.59 27 210 0 24 6438 22 79962 16135 2.9 19 7 2 6 24% 8032 73170 13965 38%
c v 14.64 27 210 0 24 6438 22 79962 15160 2.9 19 7 2 6 24% 8037 73170 13965 38%
c w 14.70 27 210 0 24 6438 22 79962 15151 2.9 19 7 2 6 24% 8037 73170 13965 38%
c x 14.74 27 210 0 24 6438 22 79962 15151 2.9 19 7 2 6 24% 8040 73058 13965 38%
c = 14.92 27 210 0 24 6438 22 79962 15151 2.9 19 7 2 6 24% 8250 73058 13860 38%
c d 14.93 27 210 0 24 6438 22 79962 15064 2.9 19 7 2 6 24% 8015 73058 13856 38%
c t 14.94 27 210 0 24 6438 22 79962 15064 2.9 19 7 2 6 24% 8000 73058 13856 38%
c f 14.94 27 210 0 24 6438 22 79962 15064 2.9 19 7 2 6 24% 7999 73054 13857 38%
c - 15.12 27 208 0 25 6572 22 81640 14713 2.9 19 7 2 6 24% 8024 73053 13857 38%
c - 15.76 27 206 0 26 7071 22 86640 15480 2.9 19 7 1 5 24% 8074 73046 13857 38%
c - 16.46 27 201 0 27 7644 23 91740 17021 2.9 20 7 1 5 24% 8138 73046 13857 38%
c s 16.63 27 199 0 27 7757 22 95804 20432 2.8 19 7 1 5 23% 8190 72497 13857 38%
c e 16.73 27 199 0 27 7757 22 95804 20432 2.8 19 7 1 5 23% 5406 79798 12316 34%
c 2 16.73 27 199 0 27 7757 22 95804 20432 2.8 19 7 1 5 23% 5399 79798 12316 34%
c s 16.74 27 199 0 27 7757 22 95804 20432 2.8 19 7 1 5 23% 5425 79136 12316 34%
c e 16.75 27 199 0 27 7757 22 95804 20432 2.8 19 7 1 5 23% 5379 79291 12268 34%
c ^ 16.75 27 199 0 27 7757 22 95804 20432 2.8 19 7 1 5 23% 5379 79291 12268 34%
c
c  seconds   switched     rate         size/glue tier1    binary         remaining
c         MB   reductions   conflicts        size  tier2     irredundant
c           level   restarts      redundant    glue   trail         variables
c
c - 16.93 27 198 0 28 7866 22 96936 14063 2.8 19 7 1 5 23% 5383 79291 12268 34%
c - 17.44 27 191 0 29 8294 21 102227 15731 2.8 19 7 1 5 23% 5426 79287 12268 34%
c c 17.72 27 190 0 29 8478 21 104601 17869 2.8 19 7 1 5 23% 5506 78978 12215 33%
c d 17.72 27 190 0 29 8478 21 104601 17734 2.8 19 7 1 5 23% 5400 78978 12215 33%
c u 17.76 27 190 0 29 8478 21 104601 15911 2.8 19 7 1 5 23% 5432 78978 12215 33%
c v 17.81 27 190 0 29 8478 21 104601 13430 2.8 19 7 1 5 23% 5440 78978 12215 33%
c w 17.90 27 190 0 29 8478 21 104601 13069 2.8 19 7 1 5 23% 5441 78978 12215 33%
c = 18.21 27 190 0 29 8478 21 104601 13069 2.8 19 7 1 5 23% 5929 78965 11970 33%
c d 18.22 27 190 0 29 8478 21 104601 12648 2.8 19 7 1 5 23% 5352 78965 11968 33%
c t 18.23 27 190 0 29 8478 21 104601 12648 2.8 19 7 1 5 23% 5316 78965 11968 33%
c f 18.29 27 190 0 29 8478 21 104601 12648 2.8 19 7 1 5 23% 5358 78746 11987 33%
c c 18.33 27 190 0 29 8478 21 104601 12642 2.8 19 7 1 5 23% 5372 78710 11982 33%
c d 18.33 27 190 0 29 8478 21 104601 12642 2.8 19 7 1 5 23% 5362 78710 11982 33%
c u 18.36 27 190 0 29 8478 21 104601 12089 2.8 19 7 1 5 23% 5367 78710 11982 33%
c v 18.40 27 190 0 29 8478 21 104601 11506 2.8 19 7 1 5 23% 5369 78710 11982 33%
c w 18.47 27 190 0 29 8478 21 104601 11374 2.8 19 7 1 5 23% 5369 78710 11982 33%
c x 18.55 27 190 0 29 8478 21 104601 11374 2.8 19 7 1 5 23% 5369 78642 11982 33%
c = 18.86 27 190 0 29 8478 21 104601 11374 2.8 19 7 1 5 23% 5589 78642 11872 33%
c d 18.87 27 190 0 29 8478 21 104601 11130 2.8 19 7 1 5 23% 5356 78642 11872 33%
c t 18.88 27 190 0 29 8478 21 104601 11130 2.8 19 7 1 5 23% 5352 78642 11872 33%
c
c  seconds   switched     rate          size/glue tier1    binary         remaining
c         MB   reductions   conflicts         size  tier2     irredundant
c           level   restarts       redundant    glue   trail         variables
c
c f 18.89 27 190 0 29 8478 21 104601 11130 2.8 19 7 1 5 23% 5354 78631 11873 33%
c - 19.26 27 188 0 30 8704 21 107612 11979 2.8 19 7 1 5 23% 5357 78631 11873 33%
c o 19.55 27 184 0 30 8935 21 110234 14316 2.7 18 7 1 5 24% 5378 78630 11873 33%
c - 19.96 27 182 0 31 9259 21 113089 14604 2.7 18 7 1 5 24% 5399 78628 11873 33%
c - 20.85 27 178 0 32 9935 21 118656 16742 2.7 18 7 1 5 24% 5424 78628 11873 33%
c - 21.58 27 177 0 33 10417 21 124312 18143 2.7 19 7 1 5 24% 5486 78625 11873 33%
c - 22.45 27 174 0 34 10974 21 130056 19531 2.7 19 7 1 5 24% 5525 78623 11873 33%
c d 22.83 27 173 0 34 11237 21 132856 21847 2.7 19 7 1 5 24% 5424 78623 11809 32%
c u 22.88 27 173 0 34 11237 21 132856 19416 2.7 19 7 1 5 24% 5445 78623 11809 32%
c v 22.94 27 173 0 34 11237 21 132856 15967 2.7 19 7 1 5 24% 5452 78623 11809 32%
c w 23.10 27 173 0 34 11237 21 132856 15509 2.7 19 7 1 5 24% 5452 78623 11809 32%
c = 23.56 27 173 0 34 11237 21 132856 15509 2.7 19 7 1 5 24% 5692 78603 11687 32%
c d 23.56 27 173 0 34 11237 21 132856 15249 2.7 19 7 1 5 24% 5395 78603 11687 32%
c t 23.57 27 173 0 34 11237 21 132856 15249 2.7 19 7 1 5 24% 5379 78603 11687 32%
c f 23.58 27 173 0 34 11237 21 132856 15249 2.7 19 7 1 5 24% 5392 78522 11694 32%
c u 23.65 27 173 0 34 11237 21 132856 14712 2.7 19 7 1 5 24% 5398 78522 11694 32%
c v 23.69 27 173 0 34 11237 21 132856 14092 2.7 19 7 1 5 24% 5399 78522 11694 32%
c w 23.82 27 173 0 34 11237 21 132856 13935 2.7 19 7 1 5 24% 5399 78522 11694 32%
c = 24.26 27 173 0 34 11237 21 132856 13935 2.7 19 7 1 5 24% 5477 78522 11655 32%
c d 24.26 27 173 0 34 11237 21 132856 13928 2.7 19 7 1 5 24% 5397 78522 11655 32%
c
c  seconds   switched      rate          size/glue tier1    binary         remaining
c         MB   reductions    conflicts         size  tier2     irredundant
c           level   restarts        redundant    glue   trail         variables
c
c t 24.27 27 173 0 34 11237 21 132856 13928 2.7 19 7 1 5 24% 5374 78522 11655 32%
c f 24.28 27 173 0 34 11237 21 132856 13928 2.7 19 7 1 5 24% 5374 78513 11656 32%
c - 24.62 27 172 0 35 11465 21 135886 14270 2.7 19 7 1 5 25% 5385 78513 11656 32%
c i 25.06 27 170 0 35 11789 21 141121 18790 2.7 19 7 1 5 24% 5444 78510 11655 32%
c i 25.13 27 170 0 35 11827 21 141725 19340 2.7 19 7 1 5 24% 5448 78510 11654 32%
c - 25.13 27 170 0 36 11827 21 141802 16674 2.7 19 7 1 5 24% 5430 78510 11654 32%
c i 25.58 27 168 0 36 12114 21 145056 19627 2.7 19 7 1 5 24% 5445 78510 11653 32%
c i 25.61 27 167 0 36 12127 21 145364 19858 2.7 19 7 1 5 24% 5453 78510 11652 32%
c i 25.68 27 167 0 36 12166 21 145857 20286 2.7 19 7 1 5 24% 5458 78510 11650 32%
c i 25.76 27 167 0 36 12226 21 146332 20724 2.7 19 7 1 5 24% 5464 78510 11649 32%
c - 26.01 27 166 0 37 12389 21 147803 18812 2.7 19 7 1 5 25% 5451 78510 11649 32%
c i 26.07 27 166 0 37 12438 21 148322 19230 2.7 19 7 1 5 25% 5470 78510 11648 32%
c i 26.75 27 165 0 37 12918 21 152395 23034 2.7 20 7 1 5 25% 5485 78510 11647 32%
c i 26.90 27 165 0 37 13013 21 153581 24034 2.7 20 7 1 5 25% 5505 78510 11645 32%
c - 26.95 27 165 0 38 13038 21 153885 20643 2.7 20 7 1 5 25% 5484 78510 11645 32%
c i 27.27 27 163 0 38 13235 20 157558 23811 2.7 20 7 1 5 25% 5518 78510 11644 32%
c s 27.33 27 163 0 38 13280 20 157887 24098 2.7 20 7 1 5 25% 5522 76111 11644 32%
c e 27.45 27 163 0 38 13280 20 157887 24098 2.7 20 7 1 5 25% 3110 88138 10027 27%
c 2 27.45 27 163 0 38 13280 20 157887 24098 2.7 20 7 1 5 25% 3109 88138 10027 27%
c s 27.48 27 163 0 38 13280 20 157887 24098 2.7 20 7 1 5 25% 3128 86586 10027 27%
c
c  seconds   switched      rate          size/glue tier1    binary        remaining
c         MB   reductions    conflicts         size  tier2     irredundant
c           level   restarts        redundant    glue   trail        variables
c
c e 27.50 27 163 0 38 13280 20 157887 24098 2.7 20 7 1 5 25% 3092 86754 9981 27%
c ^ 27.50 27 163 0 38 13280 20 157887 24098 2.7 20 7 1 5 25% 3092 86754 9981 27%
c - 27.73 27 162 0 39 13444 20 160051 14887 2.7 20 7 1 5 25% 3102 86754 9981 27%
c i 27.73 27 161 0 39 13444 20 160207 14974 2.7 20 7 1 5 25% 3107 86754 9980 27%
c o 27.74 27 161 0 39 13446 20 160235 15002 2.7 20 7 1 5 25% 3107 86754 9980 27%
c i 28.09 27 160 0 39 13719 20 162432 17051 2.7 20 7 1 5 25% 3113 86754 9979 27%
c i 28.21 27 160 0 39 13822 20 163258 17746 2.7 20 7 1 5 25% 3119 86754 9978 27%
c i 28.21 27 160 0 39 13822 20 163265 17747 2.7 20 7 1 5 25% 3121 86754 9976 27%
c d 28.33 27 159 0 39 13918 20 164840 18766 2.7 20 7 1 5 25% 3140 86707 9975 27%
c d 28.34 27 159 0 39 13918 20 164840 18745 2.7 20 7 1 5 25% 3126 86707 9968 27%
c u 28.38 27 159 0 39 13918 20 164840 16686 2.7 20 7 1 5 25% 3147 86707 9968 27%
c v 28.45 27 159 0 39 13918 20 164840 13893 2.7 20 7 1 5 25% 3149 86707 9968 27%
c w 28.57 27 159 0 39 13918 20 164840 13856 2.7 20 7 1 5 25% 3149 86707 9968 27%
c x 28.67 27 159 0 39 13918 20 164840 13839 2.7 20 7 1 5 25% 3178 84985 9968 27%
c = 29.11 27 159 0 39 13918 20 164840 13839 2.7 20 7 1 5 25% 3270 84819 9909 27%
c d 29.12 27 159 0 39 13918 20 164840 13642 2.7 20 7 1 5 25% 3164 84819 9909 27%
c t 29.12 27 159 0 39 13918 20 164840 13642 2.7 20 7 1 5 25% 3115 84819 9909 27%
c f 29.22 27 159 0 39 13918 20 164840 13642 2.7 20 7 1 5 25% 3136 84583 9920 27%
c u 29.26 27 159 0 39 13918 20 164840 13273 2.7 20 7 1 5 25% 3139 84583 9920 27%
c v 29.30 27 159 0 39 13918 20 164840 12865 2.7 20 7 1 5 25% 3139 84583 9920 27%
c
c  seconds   switched      rate          size/glue tier1    binary        remaining
c         MB   reductions    conflicts         size  tier2     irredundant
c           level   restarts        redundant    glue   trail        variables
c
c w 29.53 27 159 0 39 13918 20 164840 12346 2.7 20 7 1 5 25% 3139 84583 9920 27%
c i 30.01 27 159 0 39 13923 20 165022 12476 2.7 20 7 1 5 25% 3143 84583 9919 27%
c - 30.11 27 158 0 40 14010 20 166295 11490 2.7 20 7 1 5 25% 3117 84583 9919 27%
c i 30.15 27 158 0 40 14037 20 166558 11725 2.7 20 7 1 5 25% 3122 84583 9918 27%
c i 30.29 27 156 0 40 14140 20 168336 13326 2.7 20 7 1 5 25% 3128 84583 9917 27%
c - 30.71 27 153 0 41 14490 20 172620 14521 2.6 19 7 1 5 25% 3137 84582 9917 27%
c i 30.95 27 152 0 41 14706 19 174734 16467 2.6 19 7 1 5 25% 3145 84582 9916 27%
c i 31.27 27 150 0 41 14968 19 177810 19233 2.6 19 7 1 5 24% 3155 84581 9915 27%
c - 31.40 27 149 0 42 15054 19 179025 16615 2.6 19 7 1 5 24% 3150 84581 9915 27%
c i 31.44 27 148 0 42 15093 19 179456 16990 2.6 19 7 1 5 24% 3153 84581 9914 27%
c i 31.55 27 147 0 42 15216 19 181319 18653 2.6 19 7 1 5 24% 3165 84581 9913 27%
c i 31.56 27 147 0 42 15228 19 181438 18759 2.6 19 7 1 5 24% 3167 84581 9912 27%
c i 31.63 27 146 0 42 15306 19 182660 19835 2.6 19 7 1 5 24% 3174 84581 9911 27%
c i 31.64 27 146 0 42 15327 19 182904 20043 2.6 19 7 1 5 24% 3179 84581 9910 27%
c i 31.64 27 146 0 42 15329 19 182954 20091 2.6 19 7 1 5 24% 3179 84581 9909 27%
c - 31.74 27 143 0 43 15463 18 185505 18162 2.6 19 7 1 5 24% 3175 84581 9909 27%
c - 32.05 27 137 0 44 16080 18 192062 19133 2.5 19 8 1 5 23% 3214 84581 9909 27%
c i 32.09 27 136 0 44 16166 18 193288 20189 2.5 19 8 1 5 23% 3226 84581 9907 27%
c - 32.33 27 131 0 45 16571 17 198695 19503 2.5 19 8 1 5 22% 3260 84577 9907 27%
c c 32.42 27 129 0 45 16689 17 200637 21186 2.5 19 8 1 5 21% 3288 84225 9852 27%
c
c  seconds   switched      rate          size/glue tier1    binary        remaining
c         MB   reductions    conflicts         size  tier2     irredundant
c           level   restarts        redundant    glue   trail        variables
c
c d 32.43 27 129 0 45 16689 17 200637 20670 2.5 19 8 1 5 21% 3213 84190 9852 27%
c d 32.43 27 129 0 45 16689 17 200637 20665 2.5 19 8 1 5 21% 3181 84190 9836 27%
c u 32.48 27 129 0 45 16689 17 200637 18337 2.5 19 8 1 5 21% 3196 84190 9836 27%
c v 32.54 27 129 0 45 16689 17 200637 16171 2.5 19 8 1 5 21% 3197 84190 9836 27%
c w 32.56 27 129 0 45 16689 17 200637 16134 2.5 19 8 1 5 21% 3197 84190 9836 27%
c x 32.61 27 129 0 45 16689 17 200637 16134 2.5 19 8 1 5 21% 3197 84163 9836 27%
c d 32.62 27 129 0 45 16689 17 200637 16097 2.5 19 8 1 5 21% 3191 84163 9833 27%
c t 32.63 27 129 0 45 16689 17 200637 16097 2.5 19 8 1 5 21% 3175 84163 9833 27%
c f 32.63 27 129 0 45 16689 17 200637 16097 2.5 19 8 1 5 21% 3177 84144 9834 27%
c u 32.68 27 129 0 45 16689 17 200637 15721 2.5 19 8 1 5 21% 3180 84144 9834 27%
c v 32.73 27 129 0 45 16689 17 200637 14461 2.5 19 8 1 5 21% 3185 84144 9834 27%
c w 32.78 27 129 0 45 16689 17 200637 14109 2.5 19 8 1 5 21% 3185 84144 9834 27%
c = 33.08 27 129 0 45 16689 17 200637 14109 2.5 19 8 1 5 21% 3269 84031 9780 27%
c d 33.09 27 129 0 45 16689 17 200637 13830 2.5 19 8 1 5 21% 3181 84030 9780 27%
c t 33.09 27 129 0 45 16689 17 200637 13830 2.5 19 8 1 5 21% 3145 84030 9780 27%
c i 33.11 27 128 0 45 16695 17 201687 14621 2.5 19 7 1 5 21% 3154 84030 9753 27%
c i 33.12 27 128 0 45 16699 17 201899 14759 2.5 19 7 1 5 21% 3161 84030 9730 27%
c i 33.12 27 128 0 45 16699 17 201920 14766 2.5 19 7 1 5 21% 3165 84029 9728 27%
c } 33.12 27 128 0 45 16699 17 201928 14766 2.5 19 7 1 5 21% 3168 84029 9657 26%
c 0 33.12 27 128 0 45 16699 17 201928 14766 2.5 19 7 1 5 21% 3168 84029 9657 26%
c
c ---- [ result ] ------------------------------------------------------------
c
s UNSATISFIABLE
c
c ---- [ profiling ] ---------------------------------------------------------
c
c          22.35   67.49 %  search
c          22.35   67.49 %  focused
c          10.41   31.43 %  simplify
c           9.85   29.76 %  probe
c           4.50   13.57 %  sweep
c           3.56   10.74 %  vivify
c           0.75    2.27 %  eliminate
c           0.70    2.11 %  factor
c           0.51    1.54 %  congruence
c           0.44    1.34 %  substitute
c           0.31    0.92 %  preprocess
c           0.18    0.55 %  reduce
c           0.13    0.41 %  subsume
c           0.11    0.32 %  transitive
c           0.10    0.31 %  fastel
c           0.05    0.14 %  backbone
c           0.03    0.09 %  lucky
c           0.02    0.07 %  parse
c =============================================
c          33.12  100.00 %  total
c
c ---- [ statistics ] --------------------------------------------------------
c
c chronological:                         5932                3 %  conflicts
c conflicts:                           201928             6096.88 per second
c congruent:                             3868               11 %  variables
c decisions:                          3714614               18.40 per conflict
c eliminated:                           20324               56 %  variables
c factored:                              3804               10 %  variables
c fast_eliminated:                      11151               55 %  eliminated
c fast_strengthened:                       17                0 %  per strengthened
c fast_subsumed:                           62                0 %  per subsumed
c iterations:                              30                0 %  variables
c propagations:                     149566515          4515914    per second
c reductions:                              45             4487    interval
c reordered:                                6            33655    interval
c restarts:                             16699               12    interval
c strengthened:                          5847                0 %  checks
c substituted:                          10120               28 %  variables
c subsumed:                             15964                0 %  checks
c switched:                                 0                0    interval
c vivified:                             93765               15 %  checks
c
c ---- [ glue usage ] --------------------------------------------------------
c
c focused glue 1 used 329452 clauses 58.12% accumulated 58.12% tier1
c focused glue 2 used 113980 clauses 20.11% accumulated 78.23%
c focused glue 3 used  40264 clauses  7.10% accumulated 85.34%
c focused glue 4 used  22847 clauses  4.03% accumulated 89.37%
c focused glue 5 used  14212 clauses  2.51% accumulated 91.87% tier2
c
c ---- [ resources ] ---------------------------------------------------------
c
c maximum-resident-set-size:         29487104 bytes         28 MB
c process-time:                            33s              33.12 seconds
c
c ---- [ shutting down ] -----------------------------------------------------
c
c exit 20
